# Random packing for floe creation
# By Lexi Arlen October 2024

### ----------------------------------- variable declaration ----------------------------------- ###

# Material Properties
variable diameter                equal 1.0        # [m] particles diameter 
variable density                 equal 910.0      # [kg/m3] 3D particle density
variable elastic_modulus         equal 1.0e8      # [Pa]
variable poissons_ratio          equal 0.3        # [-]

# Simulation Parameters
variable fy_top                  equal 5e4      # [N] strength of tensioning force
variable fy_bot                  equal -5e4     # [N] strength of tensioning force
variable fileprint_time          equal 0.005    # [s] how often we print to the file
variable dt                      equal 0.001    # [s] timestep

# Derived Material Properties
variable radius                  equal 0.5*${diameter}
variable shear_modulus           equal ${elastic_modulus}/(2.0*(1.0+${poissons_ratio})) # assume isotropy

### ----------------------------------- build simulation ----------------------------------- ###

# Preliminaries
units si                                # SI units
atom_style granular                     # specify particle style
hard_particles yes                      # need for high elastic modulus (> 1e5)
newton off                              # don't use Newton's 3rd law

processors * * *                        # 1 processor per axis; if using multiple processors, use '*'
communicate single vel yes              # ghost particles are given position and velocity information
neighbor 1.0 bin                        # skin distance to specify bin size for neighbor list generation
neigh_modify delay 0                    # don't delay the generation of neighbor lists                                                              

# Domain
boundary f f f                                               # periodic boundary conditions in x y z                                        
region domain block 0.0 50.0 0.0 50.0 0.0 10.0 units box     # (min X, max X, min Y, max Y, min Z, max Z)
create_box 1 domain                                          # create box with domain above and 1 particle type

# Contact style
pair_style gran model hertz tangential history                           # Hertz-Mindlin
pair_coeff * *                                                           # contact coeffs from material props not force field

# Specify contact properties
fix m1 all property/global youngsModulus peratomtype ${elastic_modulus}  # set the elastic modulus
fix m2 all property/global poissonsRatio peratomtype ${poissons_ratio}   # set Poisson's ratio
fix m3 all property/global coefficientRestitution peratomtypepair 1 0.2  # set restituion coefficient to atom type 1
fix m4 all property/global coefficientFriction peratomtypepair 1 0.7     # set friction coefficient to atom type 1

# Add walls
fix xwalls1 all wall/gran model hertz tangential history primitive type 1 xplane 0.0 
fix xwalls2 all wall/gran model hertz tangential history primitive type 1 xplane 50.0 
fix ywalls1 all wall/gran model hertz tangential history primitive type 1 yplane 0.0 
fix ywalls2 all wall/gran model hertz tangential history primitive type 1 yplane 50.0 
fix zwalls1 all wall/gran model hertz tangential history primitive type 1 zplane 0.0
fix zwalls2 all wall/gran model hertz tangential history primitive type 1 zplane 10.0

# Particle Insertion
fix pts1 all particletemplate/sphere 67867967 atom_type 1 density constant ${density} radius constant ${radius}
fix pdd1 all particledistribution/discrete 49979693 1 pts1 1.0 # seed, numnber of particle templates, particle template, fraction particles of template 
fix ins all insert/pack seed 32452867 distributiontemplate pdd1 &
			maxattempt 200 insert_every once overlapcheck yes all_in yes vel constant 0. 0. 0. &
			region domain particles_in_region 5000

timestep ${dt}                                                           # timestep
run 0                                                                    # insert particles

### ------------------------------------- apply gravity ------------------------------------------ ###

fix grav_down all gravity 9.8 vector 0.0 .0.0 -1.0

### ----------------------------------- run & output simulation ---------------------------------- ###

fix integrate all nve/sphere                            # set the integrator such that moles, velocity, and energy are conserved 

shell mkdir post3d                                      # make directory to output data

dump dmp all custom 1000 post3d/dump*.liggghts id mass x y z vx vy vz fx fy fz omegax omegay omegaz radius 
dump_modify dmp pad 10                                  # pad the timesteps with zeros

thermo 1000                                               # set output frequency for output for screen
thermo_style custom step atoms numbonds dt              # custom pringting to screen
thermo_modify lost ignore norm no                       # ignore lost atoms and do not normalize output

run 10000                                                # run

unfix grav_down 
# fix top_right all gravity 1.0 vector 3.0 1.0 -9.8
# run 5000

# unfix top_right 
# fix top_left all gravity 1.0 vector -1.0 3.0 -9.8
# run 5000

# unfix top_left 
# fix bot_left all gravity 1.0 vector -3.0 -1.0 -9.8
# run 5000

# unfix bot_left 
# fix bot_right all gravity 1.0 vector 1.0 -3.0 -9.8
# run 5000

# unfix bot_right 
fix tilt1 all gravity 1.0 vector 4.0 0.1 -9.8
run 2000

unfix tilt1
fix tilt2 all gravity 1.0 vector -4.0 -0.1 -9.8
run 2000

unfix tilt2
fix tilt3 all gravity 1.0 vector 4.0 0.1 -9.8
run 2000

unfix tilt3
fix tilt3 all gravity 1.0 vector -4.0 -0.1 -9.8
run 2000

unfix tilt3
fix tilt4 all gravity 1.0 vector 4.0 0.1 -9.8
run 2000

unfix tilt4
fix tilt5 all gravity 1.0 vector -4.0 -0.1 -9.8
run 2000

unfix tilt5
fix tilt6 all gravity 1.0 vector 4.0 0.1 -9.8
run 2000

unfix tilt6
fix tilt6 all gravity 1.0 vector -4.0 -0.1 -9.8
run 2000

unfix tilt6
fix just_grav all gravity 1.0 vector 0.0 0.0 -9.8
run 20000