# Material Properties
variable diameter                equal 1.0        # [m] particles diameter 
variable bond_damp_type          equal 1          # [-] Use Yu Guo Damping
variable bond_damp_val           equal 0.05       # [-] from cantilever beam; shear uses 0.05; make higher..?
variable ice_density             equal 910.0      # [kg/m3] 3D density
variable elastic_modulus         equal 1.0e8      # [Pa]
variable poissons_ratio          equal 0.3        # [-]
variable normal_strength         equal 1.0e5      # [Pa] bond critical normal strength
variable shear_strength          equal 1.0e6      # [Pa] bond critical shear strength
variable polydispersity          equal 0.02       # [-] percent polydispersity to apply

# Preliminaries
units si                                                                # SI units
atom_style hybrid granular bond/gran n_bondtypes 1 bonds_per_atom 6     # specify particle and bond style
atom_modify map array sort 0 0                                              
newton off                                                              # don't use Newton's 3rd law

processors * * *                        # 1 processor per axis; if using multiple processors, use '*'
# Bond style
bond_style gran  
# Insert atoms from data file
read_data test_no_bond.data


communicate single vel yes              # ghost particles are given position and velocity information
neighbor 0.5 bin                        # skin distance to specify bin size for neighbor list generation
neigh_modify delay 0                    # don't delay the generation of neighbor lists   


                                                        # linear parallel bond

# Contact style
pair_style gran model hertz tangential history                           # Hertz-Mindlin
pair_coeff * *                                                           # contact coeffs from material props not force field

# Contact law
fix m1 all property/global youngsModulus peratomtype ${elastic_modulus}  # set the elastic modulus
fix m2 all property/global poissonsRatio peratomtype ${poissons_ratio}   # set Poisson's ratio
fix m3 all property/global coefficientRestitution peratomtypepair 1 0.2  # set restituion coefficient to atom type 1
fix m4 all property/global coefficientFriction peratomtypepair 1 0.7     # set friction coefficient to atom type 1

# Set bond coefficients for a simple bond (no holes) with properties below; see Notion for more details 
bond_coeff 1 1 0 ${elastic_modulus} ${shear_modulus} ${bond_damp_type} ${bond_damp_val} 1 ${normal_strength} ${shear_strength}

#group all_atoms type 1 

# Timestep & insertion
timestep 1e-3                                                          # timestep
run 0                   