# Material Properties
variable bond_damp_type          equal 1          # [-] Use Yu Guo Damping
variable bond_damp_val           equal 0.0        # [-] don't use bond damping
variable elastic_modulus         equal 3.5e9        # [Pa]
variable poissons_ratio          equal 0.3        # [-]
variable normal_strength         equal 5e6      # [Pa] bond critical normal strength
variable shear_strength          equal 15e6      # [Pa] bond critical shear strength
variable coeff_rest              equal 0.3        # [-] particle particle
variable mu                      equal 1.0        # [-] particle particle friction
variable wall_friction           equal 2.5        # [-] wall wall friction  
variable max_diameter            equal 0.015      # [m] max particles diameter

# Simulation Parameters
variable l                       equal 0.4        # [m] sample height between "plates"
variable strain_rate             equal 7.5e-3       # [1/s]

# Derived Properties & Parameters
variable shear_modulus           equal ${elastic_modulus}/(2.0*(1.0+${poissons_ratio})) # assume isotropy
variable sample_width            equal ${l}*0.5
variable top_plate_height        equal ${l}*1-${max_diameter}/2
variable bot_plate_height        equal 0-0.05
variable top_plate_velocity      equal -1*${l}*${strain_rate}

# Numerics & output
variable dt                      equal 1e-6                # really low to resolve high elastic modulus
variable run_time                equal 1.5                 # [s] runtime
variable num_timesteps           equal floor(${run_time}/${dt})   
variable dump_freq               equal 500
variable post_dir                string "post"

### ----------------------------------- build simulation ----------------------------------- ###


# Preliminaries
units si                                                                # SI units
atom_style hybrid granular bond/gran n_bondtypes 1 bonds_per_atom 12     # specify particle and bond style
atom_modify map array sort 0 0                                              
newton off                                                              # don't use Newton's 3rd law
boundary f f f
hard_particles yes

processors 1 1 4                                                        # ligghts allocates processors for x,y,z '*'

read_restart restarts/sample.restart    # DO I NEED TO MODIFY THE NUMBER OF ATOM TYPES IN THE READ DATA FILE OR WILL THIS JUST WORK?

communicate single vel yes              # ghost particles are given position and velocity information
neighbor 0.008 bin                      # radius is a good threshold; smaller = faster runs unless too small
neigh_modify delay 0                    # don't delay the generation of neighbor lists   

# Bond style
bond_style gran                                                          # linear parallel bond

# Contact style
pair_style gran model hertz tangential history                           # Hertz-Mindlin
pair_coeff * *                                                           # contact coeffs from material props not force field

# Contact law
fix m1 all property/global youngsModulus peratomtype ${elastic_modulus} ${elastic_modulus} # set the elastic modulus
fix m2 all property/global poissonsRatio peratomtype ${poissons_ratio} ${poissons_ratio}  # set Poisson's ratio
fix m3 all property/global coefficientRestitution peratomtypepair 2 ${coeff_rest} ${coeff_rest} ${coeff_rest} ${coeff_rest} 
fix m4 all property/global coefficientFriction peratomtypepair 2 ${mu} ${wall_friction} ${wall_friction} ${wall_friction}     # set friction coefficient to atom type 1


# Set bond coefficients for a simple bond (no holes) with properties below; see Notion for more details 
bond_coeff 1 1 0 ${elastic_modulus} ${shear_modulus} ${bond_damp_type} ${bond_damp_val} 1 ${normal_strength} ${shear_strength}

# Timestep & insertion
timestep ${dt}                                                         
run 0

# Insert compressor; inserts with smallest corner centered at origin
fix mesh_top all mesh/surface/stress file meshes/ji_compressor.stl type 2  move -0.25 -0.25 ${top_plate_height}
fix mesh_bot all mesh/surface/stress file meshes/ji_compressor.stl type 2  move -0.25 -0.25 ${bot_plate_height}

# Add walls to catch fallen particles
fix bot_wall all wall/gran model hertz tangential history primitive type 1 zplane 0
fix side1 all wall/gran model hertz tangential history primitive type 1 xplane -0.3
fix side2 all wall/gran model hertz tangential history primitive type 1 xplane 0.6
fix side3 all wall/gran model hertz tangential history primitive type 1 yplane -0.3
fix side4 all wall/gran model hertz tangential history primitive type 1 yplane 0.6

### ----------------------------------- computes ---------------------------------- ###
 
compute bcall all property/local batom1 batom2 bbondbroken

### ----------------------------------- apply forces ---------------------------------- ###

fix integrate all nve/sphere         

# make mesh exist to balls
fix meshwalls all wall/gran model hertz tangential history mesh n_meshes 2 meshes mesh_top mesh_bot

# move mesh & apply gravity
fix move_top_mesh all move/mesh mesh mesh_top linear 0.0 0.0 ${top_plate_velocity}
fix gravi all gravity 9.81 vector 0.0 0.0 -1.0

### ----------------------------------- run & output ---------------------------------- ###

# dump meshdump_top all mesh/stl ${dump_freq} post/mesh_top*.stl mesh_top mesh_bot # if dump stress, stress = fz/element area, so dump area too and then calculate
# dump_modify meshdump_top pad 10 

dump meshdump_top_vtk all mesh/vtk ${dump_freq} ${post_dir}/get_stress*.vtk stress area mesh_top
dump_modify meshdump_top_vtk pad 10 first yes                           # pad the timesteps with zeros

dump atom_test all custom 5000 ${post_dir}/atoms*.liggghts id x y z radius vx vy vz fx fy fz
dump_modify atom_test pad 10 sort id first yes

thermo 20000                                             # set output frequency for output for screen
thermo_style custom step numbonds atoms time dt               # custom pringting to screen
thermo_modify lost warn norm no                       # ignore lost atoms and do not normalize output

run ${num_timesteps}

# run one more step to save the final
dump bondforcechain all local 1 ${post_dir}/bfc_final*.bond c_bcall[1] c_bcall[2] c_bcall[3] 
dump_modify bondforcechain pad 10 label 'BONDS' 

# dump dmp_all all custom 1 ${post_dir}/all_atoms*.liggghts id x y z radius 
# dump_modify dmp_all pad 10 sort id                              # pad the timesteps with zeros

run 1