# Material Properties
variable diameter                equal 0.02       # [m] particles diameter 
variable bond_damp_type          equal 1          # [-] Use Yu Guo Damping
variable bond_damp_val           equal 0.0        # [-] don't use bond damping
variable rho_i                   equal 920.0      # [kg/m3] ice density
variable elastic_modulus         equal 9.0e9      # [Pa]
variable poissons_ratio          equal 0.3        # [-]
variable normal_strength         equal 5.0e5      # [Pa] bond critical normal strength
variable shear_strength          equal 5.0e5      # [Pa] bond critical shear strength 
variable coeff_rest_pp           equal 0.3        # [-] particle particle
variable mu                      equal 0.5        # [-] particle particle friction
variable damping                 equal 100        # [kg/s]

# Simulation Parameters
variable phi                     equal 0.6        # [-] packing fraction
variable l                       equal 1.0        # [m] sample height between "plates"
variable strain_rate             equal 1e-3       # [1/s]

# Derived Properties & Parameters
variable radius                  equal ${diameter}/2
variable k_n                     equal ${elastic_modulus}*${diameter}
variable k_s                     equal ${k_n}/(2.0*(1.0+${poissons_ratio})) # shear stiffness assuming isotropy
variable shear_modulus           equal ${elastic_modulus}/(2.0*(1.0+${poissons_ratio})) # assume isotropy
variable cylinder_radius         equal ${l}*0.2
variable cylinder_height         equal ${l}*1.5 
variable bot_plate_height        equal ${l}*0.25
variable top_plate_height        equal ${l}*1.25
variable top_plate_velocity      equal -${l}*${strain_rate}

# Numerics & output
variable dt                      equal 5e-7                # really low to resolve high elastic modulus
variable run_time                equal 0.07                # [s] runtime
variable num_timesteps           equal ${run_time}/${dt}   # 600,000 in this case
variable dump_freq               equal 50

### ----------------------------------- build simulation ----------------------------------- ###


# Preliminaries
units si                                                                # SI units
atom_style hybrid granular bond/gran n_bondtypes 1 bonds_per_atom 12     # specify particle and bond style
atom_modify map array sort 0 0                                              
newton off                                                              # don't use Newton's 3rd law
boundary m m m
hard_particles yes

processors 1 1 4                                                        # ligghts allocates processors for x,y,z '*'

read_restart restarts/dense_sample_fixed_12_bonds.restart

communicate single vel yes              # ghost particles are given position and velocity information
neighbor 0.002 bin                      # diameter/10 is a good threshold
neigh_modify delay 0                    # don't delay the generation of neighbor lists   

# Bond style
bond_style gran                                                          # linear parallel bond

# Contact style
pair_style 	gran model hooke/stiffness tangential history
pair_coeff	* *

# friction
fix prop1 all property/global coefficientFriction peratomtypepair 1 ${mu}

# normal spring stiffness
fix prop2 all property/global kn peratomtypepair 1 ${k_n}

# tangential spring stiffness
fix prop3 all property/global kt peratomtypepair 1 ${k_s}

# normal viscous loss
fix prop4 all property/global gamman peratomtypepair 1 ${damping}

# tangential viscous loss
fix prop5 all property/global gammat peratomtypepair 1 0.0

# Set bond coefficients for a simple bond (no holes) with properties below; see Notion for more details 
bond_coeff 1 1 0 ${elastic_modulus} ${shear_modulus} ${bond_damp_type} ${bond_damp_val} 1 ${normal_strength} ${shear_strength}

# Timestep & insertion
timestep ${dt}                                                         
run 0

# Groups
region top_region cylinder z 0 0 ${cylinder_radius} ${top_plate_height} ${cylinder_height}
group top_plate region top_region
region bot_region cylinder z 0 0 ${cylinder_radius} 0 ${bot_plate_height}
group bot_plate region bot_region
group sample subtract all top_plate bot_plate

### ----------------------------------- bond grains ---------------------------------- ###
 
compute bcall all property/local batom1 batom2 bbondbroken

### ----------------------------------- apply forces ---------------------------------- ###

fix integrate sample nve/sphere         

fix bottom_plate_location bot_plate freeze
fix compressive_force top_plate move linear 0 0 ${top_plate_velocity} 

### ----------------------------------- run & output ---------------------------------- ###


dump dmp_top_plate top_plate custom ${dump_freq} post/top_plate*.liggghts id x y z fz radius 
dump_modify dmp_top_plate pad 10 sort id first yes                            

thermo 10000                                             # set output frequency for output for screen
thermo_style custom step numbonds atoms time dt                 # custom pringting to screen
thermo_modify lost warn norm no                       # ignore lost atoms and do not normalize output

run ${num_timesteps}
#if "v_numbonds < ${bonds_thresh}" then quit

# run one more step to save the final
dump bondforcechain all local ${dump_freq} post/bfc_final*.bond c_bcall[1] c_bcall[2] c_bcall[3] 
dump_modify bondforcechain pad 10 label 'BONDS' first yes

dump dmp_all all custom ${dump_freq} post/all_atoms*.liggghts id x y z radius 
dump_modify dmp_all pad 10 sort id first yes                            # pad the timesteps with zeros

run 1