# Material Properties 
variable bond_damp_type          equal 1          # [-] Use Yu Guo Damping
variable bond_damp_val           equal 0.0        # [-] don't use bond damping
variable rho_i                   equal 920.0      # [kg/m3] ice density
variable elastic_modulus         equal 5e8        # [Pa]
variable poissons_ratio          equal 0.3        # [-]
variable normal_strength         equal 5e3       # [Pa] bond critical normal strength
variable shear_strength          equal 10e3      # [Pa] bond critical shear strength 
variable coeff_rest_pp           equal 0.3       # [-] particle particle
variable coeff_rest_pw           equal 0.3        # [-] particle wall
variable mu                      equal 0.6        # [-] particle particle friction
variable wall_friction           equal 0.9        # [-] wall wall friction   
variable bs_multiplier           equal 0.001      # [-] bond skin multiplier 
variable 99q_diameter            equal 1982       # 99th quartile particle diameter, max = 2082
variable mean_diameter           equal 1747
variable max_diameter            equal 2200

# Derived Properties & Parameters
variable bond_skin               equal (1+${bs_multiplier})*${max_diameter}    # [m] 0.1% of the max diameter; will subtract this quantity first when doing the packing fix
variable shear_modulus           equal ${elastic_modulus}/(2.0*(1.0+${poissons_ratio})) # assume isotropy
variable r_o                     equal 4/(PI*${mean_diameter})    

# Numerics & output
variable dt                      equal 0.001              

### ----------------------------------- build simulation ----------------------------------- ###

# Preliminaries
units si   
dimension 2                                                             
atom_style hybrid granular bond/gran n_bondtypes 1 bonds_per_atom 6    
atom_modify map array sort 0 0                                            
newton off                                                              
hard_particles yes
processors * * *                        

# Domain
read_data data/packing2km_fixed2.data 

# Neighbors
communicate single vel yes              # ghost particles are given position and velocity information
neighbor 450 bin                        # skin distance to specify bin size for neighbor list generation
neigh_modify delay 0                    # don't delay the generation of neighbor lists   

# Bond style
bond_style gran                                        # linear parallel bond

# Contact style
pair_style gran model hertz tangential history                           # Hertz-Mindlin
pair_coeff * *                                                           # contact coeffs from material props not force field

# Contact law
fix m1 all property/global youngsModulus peratomtype ${elastic_modulus} ${elastic_modulus} # set the elastic modulus
fix m2 all property/global poissonsRatio peratomtype ${poissons_ratio} ${poissons_ratio}  # set Poisson's ratio
fix m3 all property/global coefficientRestitution peratomtypepair 2 ${coeff_rest_pp} ${coeff_rest_pw} ${coeff_rest_pw} ${coeff_rest_pw} 
fix m4 all property/global coefficientFriction peratomtypepair 2 ${mu} ${wall_friction} ${wall_friction} ${wall_friction}     # set friction coefficient to atom type 1

# Set bond coefficients for a simple bond (no holes) with properties below; see Notion for more details 
bond_coeff 1 ${r_o} 0 ${elastic_modulus} ${shear_modulus} ${bond_damp_type} ${bond_damp_val} 1 ${normal_strength} ${shear_strength}

# Delete extra atoms
group all_atoms type 1 2
variable n_atoms equal count(all_atoms)-14
delete_bonds all atom 1 remove
group atoms_2_delete id > ${n_atoms}
delete_atoms group atoms_2_delete

# Timestep & insertion
timestep ${dt}
run 0

group walls type 2
group active type 1

# Therm config
thermo 1                                             # set output frequency for output for screen
thermo_style custom step numbonds atoms time dt cpu ke                 # custom pringting to screen
thermo_modify lost warn norm no                       # ignore lost atoms and do not normalize output

### ----------------------------------- bond grains ---------------------------------- ###

# fix bondcr all bond/create/gran 1 1 1 ${bond_skin} 1 6        # nevery itype jtype bondskin btype newperts

# fix dtBond all check/timestep/bond 1 0.3                       # check the time step for the bond

run 1                                                          # bond grains

# unfix dtBond                                                   # stop checking bond timestep (not doing anymore bonding)

# fix_modify bondcr every 0                                      # do not create new bonds after this line


### ----------------------------------- run & output ---------------------------------- ###

write_restart restarts/2kmfloes.restart