# Material Properties 
variable bond_damp_type          equal 1          # [-] Use Yu Guo Damping
variable bond_damp_val           equal 0.0        # [-] don't use bond damping
variable rho_i                   equal 920.0      # [kg/m3] ice density
variable elastic_modulus         equal 1e8        # [Pa]
variable atom_elastic_modulus    equal 1e7
variable poissons_ratio          equal 0.3        # [-]
variable normal_strength_pp      equal 10e3       # [Pa] bond critical normal strength; material strength always less
variable shear_strength_pp       equal 50e3       # [Pa] bond critical shear strength 
variable normal_strength_pw      equal 10e3       # [Pa] bond critical normal strength; material strength always less
variable shear_strength_pw       equal 50e3       # [Pa] bond critical shear strength 
variable coeff_rest_pp           equal 0.5       # [-] particle particle
variable coeff_rest_pw           equal 0.5        # [-] particle wall
variable mu                      equal 0.2        # [-] particle particle friction
variable wall_friction           equal 0.0        # [-] wall wall friction   
variable mean_diameter           equal 2090

# Forcing Parameters
variable rho_o                   equal 1027       # [kg/m3] seawater density
variable rho_a                   equal 1          # [kg/m3] atmosphere density
variable drag_o                  equal 0.0055      # [-] ocean drag coefficient
variable drag_a                  equal 0.0015      # [-] atmos drag coefficient

# Derived Properties & Parameters
variable shear_modulus           equal ${elastic_modulus}/(2.0*(1.0+${poissons_ratio})) # assume isotropy
variable r_o                     equal 2/sqrt((PI*${mean_diameter}))    
variable rho_i_2d                atom ${rho_i}*3/(4*r)

# Numerics & output
variable dt                      equal 0.05                     
variable run_time                equal 24*3600                        # [s] runtime
variable num_timesteps           equal floor(${run_time}/${dt})
variable num_dumps               equal 100   
variable dump_freq               equal floor(${num_timesteps}/${num_dumps})
variable ts_check_freq           equal 6000
variable post_dir                string "post"

### ----------------------------------- build simulation ----------------------------------- ###

# Preliminaries
units si                                                              
atom_style hybrid granular bond/gran n_bondtypes 2 bonds_per_atom 6    
atom_modify map array sort 0 0                                            
newton off                                                              
hard_particles yes
processors * * *                        

# Domain
read_data data/2kmfloes_mono_fixed4.data 

# Neighbors
communicate single vel yes              # ghost particles are given position and velocity information
neighbor 450 bin                        # skin distance to specify bin size for neighbor list generation
neigh_modify delay 0                    # don't delay the generation of neighbor lists   

# Bond style
bond_style gran                                        # linear parallel bond

# Contact style
pair_style gran model hertz tangential history                           # Hertz-Mindlin
pair_coeff * *                                                           # contact coeffs from material props not force field

# Contact law
fix m1 all property/global youngsModulus peratomtype ${elastic_modulus} ${elastic_modulus} # set the elastic modulus
fix m2 all property/global poissonsRatio peratomtype ${poissons_ratio} ${poissons_ratio}  # set Poisson's ratio
fix m3 all property/global coefficientRestitution peratomtypepair 2 ${coeff_rest_pp} ${coeff_rest_pw} ${coeff_rest_pw} ${coeff_rest_pw} 
fix m4 all property/global coefficientFriction peratomtypepair 2 ${mu} ${wall_friction} ${wall_friction} ${wall_friction}     # set friction coefficient to atom type 1

# Set bond coefficients for a simple bond (no holes) with properties below; see Notion for more details 
bond_coeff 1 ${r_o} 0 ${elastic_modulus} ${shear_modulus} ${bond_damp_type} ${bond_damp_val} 1 ${normal_strength_pp} ${shear_strength_pp}
bond_coeff 2 ${r_o} 0 ${elastic_modulus} ${shear_modulus} ${bond_damp_type} ${bond_damp_val} 1 ${normal_strength_pw} ${shear_strength_pw}

# Delete extra atoms
group all_atoms type 1 2
variable n_atoms equal count(all_atoms)-14
delete_bonds all atom 1 remove
group atoms_2_delete id > ${n_atoms}
delete_atoms group atoms_2_delete

# Set correct density
set type 1 density rho_i_2d
set type 2 density rho_i_2d

# Timestep & insertion
timestep ${dt}
run 0

group walls type 2
group active type 1

# Therm config
thermo 10000                                             # set output frequency for output for screen
thermo_style custom step numbonds atoms time dt cpu ke                 # custom pringting to screen
thermo_modify lost warn norm no                       # ignore lost atoms and do not normalize output

fix grav all gravity 9.81 vector 0 0 -1
fix buoy all buoyancy dim z level 0 density ${rho_o}
fix zdrag all addforce 0 0 v_fdragz

# Dump setup
dump dmp all custom ${dump_freq} ${post_dir}/dump*.liggghts id x y z radius vx vy vz fx fy fz
dump_modify dmp pad 10 sort id first yes   



### ----------------------------------- run & output ---------------------------------- ###

#write_restart restarts/hydro_equilb.restart