# Material Properties 
variable bond_damp_type          equal 1          # [-] Use Yu Guo Damping
variable bond_damp_val           equal 0.0        # [-] don't use bond damping
variable rho_i                   equal 920.0      # [kg/m3] ice density
variable elastic_modulus         equal 2.5e8        # [Pa]
variable poissons_ratio          equal 0.3        # [-]
variable normal_strength_pp      equal 100e3       # [Pa] bond critical normal strength; material strength always less
variable shear_strength_pp       equal 500e3       # [Pa] bond critical shear strength 
variable normal_strength_pw      equal 100e3       # [Pa] bond critical normal strength; material strength always less
variable shear_strength_pw       equal 500e3       # [Pa] bond critical shear strength 
variable coeff_rest_pp           equal 0.15       # [-] particle particle
variable coeff_rest_pw           equal 0.15        # [-] particle wall
variable mu                      equal 0.6        # [-] particle particle friction
variable wall_friction           equal 0.6        # [-] wall wall friction   
variable mean_diameter           equal 2090

# Forcing Parameters
variable rho_o                   equal 1027       # [kg/m3] seawater density
variable rho_a                   equal 1          # [kg/m3] atmosphere density
variable drag_o                  equal 0.0095      # [-] ocean drag coefficient
variable drag_a                  equal 0.0015      # [-] atmos drag coefficient
variable max_wind_speed          equal 22         # [m/s]

# Derived Properties & Parameters
variable shear_modulus           equal ${elastic_modulus}/(2.0*(1.0+${poissons_ratio})) # assume isotropy
variable r_o                     equal 2/sqrt((PI*${mean_diameter}))    

# Numerics & output
variable dt                      equal 0.05                     
variable run_time                equal 24*3600                        # [s] runtime
variable num_timesteps           equal floor(${run_time}/${dt})
variable num_dumps               equal 100   
variable dump_freq               equal floor(${num_timesteps}/${num_dumps})
variable ts_check_freq           equal 6000
variable post_dir string post_reduced_phi_equal_wall_particle_bond3

### ----------------------------------- build simulation ----------------------------------- ###

# Preliminaries
units si   
dimension 2                                                             
atom_style hybrid granular bond/gran n_bondtypes 1 bonds_per_atom 6    
atom_modify map array sort 0 0                                            
newton off                                                              
processors 1 2 1                        

# Domain
read_restart restarts/reduced_phi_equal_wall_particle_bond3.restart

# Neighbors
communicate single vel yes              # ghost particles are given position and velocity information
neighbor 500 bin                        # skin distance to specify bin size for neighbor list generation
neigh_modify delay 0                    # don't delay the generation of neighbor lists   

# Bond style
bond_style gran                                        # linear parallel bond

# Contact style
pair_style gran model hertz tangential history limitForce on                         # Hertz-Mindlin
pair_coeff * *                                                           # contact coeffs from material props not force field

# Contact law
fix m1 all property/global youngsModulus peratomtype ${elastic_modulus} ${elastic_modulus} # set the elastic modulus
fix m2 all property/global poissonsRatio peratomtype ${poissons_ratio} ${poissons_ratio}  # set Poisson's ratio
fix m3 all property/global coefficientRestitution peratomtypepair 2 ${coeff_rest_pp} ${coeff_rest_pw} ${coeff_rest_pw} ${coeff_rest_pw} 
fix m4 all property/global coefficientFriction peratomtypepair 2 ${mu} ${wall_friction} ${wall_friction} ${wall_friction}     # set friction coefficient to atom type 1

# Set bond coefficients for a simple bond (no holes) with properties below; see Notion for more details 
bond_coeff 1 ${r_o} 0 ${elastic_modulus} ${shear_modulus} ${bond_damp_type} ${bond_damp_val} 1 ${normal_strength_pp} ${shear_strength_pp}
bond_coeff 2 ${r_o} 0 ${elastic_modulus} ${shear_modulus} ${bond_damp_type} ${bond_damp_val} 1 ${normal_strength_pw} ${shear_strength_pw}

# Timestep & insertion
timestep ${dt}
run 1

# Group particles
group walls type 2
group active type 1

# Set Integrator
fix int active nve/sphere
fix 2d active enforce2d

# Forcing stuff 
variable current_step               equal step
variable current_time               equal v_current_step*${dt} 
variable wind_speed_increment       equal ${max_wind_speed}/${run_time}
variable dynamic_wind_speed         equal v_current_time*${wind_speed_increment}
variable ocean_forcing_coeff_2d     atom ${rho_o}*${drag_o}*PI*r*(${rho_i}/${rho_o}+r)
variable atmos_forcing_coeff_2d     atom ${rho_a}*${drag_a}*PI*r*((${rho_o}-${rho_i})/${rho_o}+r)
# variable ocean_skin_coeff           atom ${rho_o}*${drag_o}*PI*r^2
# variable atmos_skin_coeff           atom ${rho_a}*${drag_a}*PI*r^2
 
variable u_atmos_x               equal 0.0                                                        
variable u_atmos_y_dyn           atom v_dynamic_wind_speed*-1   # should increase from 0 to 22 over 24 hrs; just start 22 for now.
variable u_ocean_x               equal 0.0
variable u_ocean_y               equal 0.0

variable Fdrag_atmos_x           atom v_atmos_forcing_coeff_2d*sqrt(${u_atmos_x}^2+v_u_atmos_y_dyn^2)*${u_atmos_x}
variable Fdrag_atmos_y           atom v_atmos_forcing_coeff_2d*sqrt(${u_atmos_x}^2+v_u_atmos_y_dyn^2)*v_u_atmos_y_dyn
variable Fdrag_ocean_x           atom v_ocean_forcing_coeff_2d*sqrt((${u_ocean_x}-vx)^2+(${u_ocean_y}-vy)^2)*(${u_ocean_x}-vx)
variable Fdrag_ocean_y           atom v_ocean_forcing_coeff_2d*sqrt((${u_ocean_x}-vx)^2+(${u_ocean_y}-vy)^2)*(${u_ocean_y}-vy)

variable dragx                   atom v_Fdrag_atmos_x+v_Fdrag_ocean_x
variable dragy                   atom v_Fdrag_atmos_y+v_Fdrag_ocean_y
fix apply_increasing_winds active addforce v_dragx v_dragy 0 

# Compute bonds
compute bc all property/local batom1 batom2 bbondbroken 

# Thermo setup
thermo 100000                                             # set output frequency for output for screen
thermo_style custom step numbonds atoms time dt cpu ke                 # custom pringting to screen
thermo_modify lost warn norm no                       # ignore lost atoms and do not normalize output

# Dump setup
dump dmp all custom ${dump_freq} ${post_dir}/dump*.liggghts id x y z radius vx vy vz fx fy fz
dump_modify dmp pad 10 sort id first yes   

dump bondforcechain all local ${dump_freq} ${post_dir}/bfc*.bond c_bc[1] c_bc[2] c_bc[3] 
dump_modify bondforcechain pad 10 label 'BONDS' first yes

# Timestep checking
fix dtBond all check/timestep/bond ${ts_check_freq} 0.3                       # check the time step for the bond
fix ts_check all check/timestep/gran ${ts_check_freq} 0.3 0.3

run ${num_timesteps} 
unfix apply_increasing_winds

# shift to static winds
variable u_atmos_y               atom ${max_wind_speed}*-1   # should increase from 0 to 22 over 24 hrs; just start 22 for now.

variable Fdrag_atmos_x           atom v_atmos_forcing_coeff_2d*sqrt(${u_atmos_x}^2+v_u_atmos_y^2)*${u_atmos_x}
variable Fdrag_atmos_y           atom v_atmos_forcing_coeff_2d*sqrt(${u_atmos_x}^2+v_u_atmos_y^2)*v_u_atmos_y
variable Fdrag_ocean_x           atom v_ocean_forcing_coeff_2d*sqrt((${u_ocean_x}-vx)^2+(${u_ocean_y}-vy)^2)*(${u_ocean_x}-vx)
variable Fdrag_ocean_y           atom v_ocean_forcing_coeff_2d*sqrt((${u_ocean_x}-vx)^2+(${u_ocean_y}-vy)^2)*(${u_ocean_y}-vy)

variable dragx                   atom v_Fdrag_atmos_x+v_Fdrag_ocean_x
variable dragy                   atom v_Fdrag_atmos_y+v_Fdrag_ocean_y
fix apply_constant_winds active addforce v_dragx v_dragy 0 

run ${num_timesteps} 

# need to save some of these variables to a csv to make sure winds are correct...